<?xml version = "1.0" encoding="UTF-8" standalone="yes"?>
<CPLEXSolution version="1.2">
 <header
   problemName="random_5"
   solutionName="incumbent"
   solutionIndex="-1"
   objectiveValue="14.073647753476688"
   solutionTypeValue="3"
   solutionTypeString="primal"
   solutionStatusValue="101"
   solutionStatusString="integer optimal solution"
   solutionMethodString="mip"
   primalFeasible="1"
   dualFeasible="1"
   MIPNodes="0"
   MIPIterations="19"
   writeLevel="3"/>
 <quality
   epInt="1.0000000000000001e-05"
   epRHS="9.9999999999999995e-07"
   maxIntInfeas="0"
   maxPrimalInfeas="2.2204460492503131e-16"
   maxX="4"
   maxSlack="3"/>
 <variables>
  <variable name="y_0_4" index="3" value="1"/>
  <variable name="y_1_3" index="6" value="1"/>
  <variable name="y_2_1" index="9" value="1"/>
  <variable name="y_3_0" index="12" value="1"/>
  <variable name="y_4_2" index="18" value="1"/>
  <variable name="x_0_4" index="23" value="4"/>
  <variable name="x_1_3" index="25" value="1"/>
  <variable name="x_2_1" index="27" value="1.9999999999999998"/>
  <variable name="x_4_2" index="34" value="3"/>
 </variables>
 <objectiveValues>
  <objective index="0" name="" value="14.073647753476688"/>
 </objectiveValues>
</CPLEXSolution>
